Traveling Salesman Problem/TSP_generados/Aleatorio1620390894_7.tsp
NAME: Aleatorio1620390894_7.tsp
COMMENT: Randomly generated scenario
TYPE: TSP
DIMENSION: 7
EDGE_WEIGHT_TYPE: ATT
NODE_COORD_SECTION
1 33.91 44.07
2 38.49 24.76
3 11.09 34.79
4 15.05 31.85
5 27.41 17.83
6 4.99 36.5
7 34.93 40.73
