Traveling Salesman Problem/TSP_generados/Aleatorio1620390894_7.opt.tour
NAME: Aleatorio1620390894_7.opt.tour
COMMENT: Optimal solution for Aleatorio1620390894_7 (92.77488893677098)
TYPE: TOUR
DIMENSION: 7
TOUR_SECTION
1 6 3 4 5 2 7
-1
EOF
